DATASET = "thpack6";
INSTANCE = "023";

WIDTH = 233;
HEIGHT = 220;
LENGTH = 587;

NO_OF_SHAPES = 15;
size = [|
  84,81,23 |
  115,72,64 |
  77,49,25 |
  40,37,22 |
  97,96,46 |
  95,43,25 |
  90,69,28 |
  56,51,49 |
  118,93,80 |
  56,47,41 |
  78,71,27 |
  88,62,41 |
  87,53,21 |
  105,47,28 |
  103,68,65 |
|];

verticality = [|
  0,0,1 |
  1,1,1 |
  0,1,1 |
  1,1,1 |
  0,0,1 |
  0,1,1 |
  0,0,1 |
  1,1,1 |
  1,1,1 |
  1,1,1 |
  0,0,1 |
  0,1,1 |
  0,0,1 |
  0,1,1 |
  1,1,1 |
|];

box_count = [
  7,
  6,
  13,
  8,
  8,
  3,
  6,
  4,
  8,
  11,
  4,
  7,
  10,
  8,
  13,
];
